nNurses = 190;
nHours = 30;
minHours = 6;
maxHours = 11;
maxConsec = 11;
maxPresence = 16;
demand = [18, 20, 21, 19, 23, 24, 27, 25, 25, 21, 22, 27, 31, 30, 33, 35, 30, 26, 25, 29, 24, 27, 22, 22, 21, 22, 26, 23, 25, 24];
